40 63
15 107
46 27
15 131
20 96
44 46
28 11
48 83
3 44
46 42
99 35
11 5
11 169
38 87
43 13
31 43
84 61
16 101
13 133
1 49
98 14
17 92
37 146
16 25
75 14
18 38
14 55
11 54
24 37
22 144
2 31
8 147
10 15
75 39
5 177
46 48
2 110
41 46
69 44
79 73
45 4
4 131
7 88
65 84
64 33
24 139
7 64
81 20
1 183
52 25
5 98
27 63
27 162
8 145
3 23
37 85
27 104
46 41
34 105
30 13
29 148
74 78
27 126
46 61
54 105
12 1
57 24
18 165
90 32
9 35
1 58
96 35
17 31
3 72
47 62
22 21
58 43
39 94
99 30
8 64
33 10
3 46
58 65
30 167
39 71
46 9
41 20
76 38
21 11
35 143
20 2
19 138
96 13
53 48
18 95
84 47
21 142
27 14
9 52
1 165
